41413.02,66.76,80.95
43717.53,63.24,76.69
46178.39,59.87,72.6
49542.18,55.8,67.67
46506.55,59.45,72.09
44285.34,62.43,75.7
60455.05,45.73,55.46
45367.4,60.94,73.9
48145.99,57.42,69.63
53548.52,51.63,62.61
46835.54,59.03,71.58
45042.0,61.38,74.43
50300.17,54.96,66.65
48940.47,56.49,68.5
52327.79,52.83,64.07
47343.41,58.39,70.81
54167.77,51.04,61.89
48992.47,56.43,68.43
42327.09,65.31,79.21
48733.33,56.73,68.8
